136949
60,96,78,3,94,70,101,105,38,104,11,41,67,95,54,71,36,85,48,73,39,37,49,18,7,53,84,33,2,62,22,21,17,90,64,16,20,56,40,77,86,46,6,69,88,13,31,65,52,5,30,29,55,97,8,106,98,42,9,50,68,99,19,81,25,45,72,82,100,51,63,32,75,35,103,4,15,61,47,14,26,34,83,57,80,23,92,12,93,89,76,58,28,27,10,59,66,44,87,1,24,74,102,43,79,91,60